projected/problems_b25_r0_d7_m100_s666/_DIMACS/b25_d7_r0_s666_083.cnf
p cnf 243 416 25
c p show 1 2 3 4 5 6 7 8 9 10 11 12 13 14 15 16 17 18 19 20 21 22 23 24 25
-215 -4 0
-215 -14 0
-216 -5 0
-216 6 0
-217 -6 0
-217 5 0
-218 217 216 0
-219 218 0
-219 215 0
-220 5 -6 0
-221 6 -5 0
-222 221 0
-222 220 0
-223 4 14 0
-224 223 0
-224 222 0
-225 224 219 0
-226 -25 10 0
-227 1 3 0
-228 -3 -1 0
-229 228 0
-229 227 0
-230 229 0
-230 226 0
-231 230 0
-231 225 0
-232 25 0
-232 -10 0
-233 -1 0
-233 -3 0
-234 3 0
-234 1 0
-235 234 233 0
-236 235 232 0
-237 222 223 0
-238 215 218 0
-239 238 0
-239 237 0
-240 239 0
-240 236 0
-241 240 231 0
-242 1 -24 0
-243 6 16 0
-26 243 0
-26 242 0
-27 -23 -8 0
-28 12 0
-28 10 0
-29 28 27 0
-30 29 0
-30 26 0
-31 30 0
-31 241 0
-32 -24 0
-32 24 0
-33 -25 5 0
-34 33 0
-34 32 0
-35 -14 -7 0
-36 7 14 0
-37 36 0
-37 35 0
-38 20 21 0
-39 38 0
-39 37 0
-40 39 0
-40 34 0
-41 1 0
-41 -2 0
-42 -16 0
-42 -19 0
-43 42 0
-43 41 0
-44 -23 0
-44 6 0
-45 17 0
-45 -25 0
-46 45 0
-46 44 0
-47 46 43 0
-48 23 -6 0
-49 -17 25 0
-50 49 48 0
-51 -1 2 0
-52 16 19 0
-53 52 51 0
-54 53 50 0
-55 54 0
-55 47 0
-56 55 0
-56 40 0
-57 56 0
-57 31 0
-58 -6 0
-58 -21 0
-59 14 6 0
-60 59 0
-60 58 0
-61 21 0
-61 22 0
-62 3 -25 0
-63 62 61 0
-64 63 0
-64 60 0
-65 -21 -22 0
-66 -3 0
-66 25 0
-67 66 0
-67 65 0
-68 6 21 0
-69 -14 0
-69 -6 0
-70 69 68 0
-71 70 0
-71 67 0
-72 71 64 0
-73 14 0
-73 -20 0
-74 -4 0
-74 -9 0
-75 74 73 0
-76 25 0
-76 18 0
-77 76 0
-77 65 0
-78 77 0
-78 75 0
-79 -25 -18 0
-80 79 61 0
-81 -14 20 0
-82 4 9 0
-83 82 0
-83 81 0
-84 83 0
-84 80 0
-85 84 78 0
-86 85 0
-86 72 0
-87 21 0
-87 14 0
-88 9 -7 0
-89 88 0
-89 87 0
-90 -9 0
-90 7 0
-91 -21 -14 0
-92 91 0
-92 90 0
-93 92 89 0
-94 21 0
-94 -17 0
-95 15 -17 0
-96 95 94 0
-97 96 0
-97 93 0
-98 24 0
-98 22 0
-99 -15 -24 0
-100 99 98 0
-101 3 20 0
-102 -10 -13 0
-103 102 0
-103 101 0
-104 103 0
-104 100 0
-105 104 97 0
-106 105 0
-106 86 0
-107 106 57 0
-108 17 0
-108 -10 0
-109 21 -10 0
-110 109 0
-110 108 0
-111 -21 0
-111 -9 0
-112 -25 20 0
-113 112 111 0
-114 113 110 0
-115 -4 -17 0
-116 -2 -25 0
-117 116 115 0
-118 5 0
-118 -22 0
-119 11 0
-119 -18 0
-120 119 118 0
-121 120 117 0
-122 121 0
-122 114 0
-123 -25 13 0
-124 -18 -11 0
-125 124 123 0
-126 -5 -12 0
-127 10 0
-127 -10 0
-128 127 0
-128 126 0
-129 128 0
-129 125 0
-130 -12 15 0
-131 -9 25 0
-132 131 0
-132 130 0
-133 1 10 0
-134 -22 0
-134 -18 0
-135 134 0
-135 133 0
-136 135 132 0
-137 136 0
-137 129 0
-138 137 122 0
-139 -17 8 0
-140 -22 -16 0
-141 140 139 0
-142 24 -14 0
-143 -15 0
-143 -25 0
-144 143 0
-144 142 0
-145 144 0
-145 141 0
-146 -12 10 0
-147 13 0
-147 23 0
-148 147 146 0
-149 13 0
-149 19 0
-150 19 0
-150 -16 0
-151 150 149 0
-152 -19 16 0
-153 -13 -19 0
-154 153 152 0
-155 154 0
-155 151 0
-156 155 148 0
-157 156 145 0
-158 -3 -20 0
-159 -3 8 0
-160 159 0
-160 158 0
-161 3 0
-161 -8 0
-162 3 0
-162 20 0
-163 162 0
-163 161 0
-164 163 160 0
-165 -7 -1 0
-166 11 -21 0
-167 166 165 0
-168 167 164 0
-169 7 0
-169 1 0
-170 -11 0
-170 21 0
-171 170 0
-171 169 0
-172 161 162 0
-173 158 159 0
-174 173 0
-174 172 0
-175 174 171 0
-176 175 0
-176 168 0
-177 -21 0
-177 -19 0
-178 19 -10 0
-179 178 0
-179 177 0
-180 6 0
-180 -24 0
-181 -5 1 0
-182 181 180 0
-183 182 0
-183 179 0
-184 183 176 0
-185 184 0
-185 157 0
-186 171 0
-186 174 0
-187 164 0
-187 167 0
-188 187 186 0
-189 21 19 0
-190 -19 0
-190 10 0
-191 190 189 0
-192 -6 24 0
-193 5 0
-193 -1 0
-194 193 0
-194 192 0
-195 194 191 0
-196 195 0
-196 188 0
-197 17 0
-197 -8 0
-198 22 0
-198 16 0
-199 198 0
-199 197 0
-200 -24 0
-200 14 0
-201 15 25 0
-202 201 200 0
-203 202 199 0
-204 12 0
-204 -10 0
-205 -13 -23 0
-206 205 0
-206 204 0
-207 152 0
-207 153 0
-208 149 0
-208 150 0
-209 208 207 0
-210 209 0
-210 206 0
-211 210 0
-211 203 0
-212 211 0
-212 196 0
-213 212 185 0
-214 213 0
-214 138 0
214 107 0
-226 -232 0
-232 -226 0
-229 -235 0
-235 -229 0
-236 -230 0
-230 -236 0
-222 -218 0
-218 -222 0
-215 -223 0
-223 -215 0
-239 -225 0
-44 -48 0
-45 -49 0
-46 -50 0
-50 -46 0
-51 -41 0
-41 -51 0
-52 -42 0
-42 -52 0
-43 -53 0
-61 -65 0
-66 -62 0
-62 -66 0
-63 -67 0
-58 -68 0
-69 -59 0
-59 -69 0
-60 -70 0
-70 -60 0
-65 -61 0
-79 -76 0
-76 -79 0
-77 -80 0
-73 -81 0
-81 -73 0
-82 -74 0
-83 -75 0
-88 -90 0
-87 -91 0
-91 -87 0
-169 -165 0
-165 -169 0
-170 -166 0
-166 -170 0
-167 -171 0
-171 -167 0
-159 -161 0
-158 -162 0
-162 -158 0
-174 -164 0
-164 -174 0
-176 -188 0
-189 -177 0
-190 -178 0
-191 -179 0
-179 -191 0
-180 -192 0
-192 -180 0
-181 -193 0
-193 -181 0
-194 -182 0
-182 -194 0
-183 -195 0
-184 -196 0
-197 -139 0
-198 -140 0
-199 -141 0
-141 -199 0
-200 -142 0
-142 -200 0
-201 -143 0
-143 -201 0
-144 -202 0
-145 -203 0
-204 -146 0
-146 -204 0
-147 -205 0
-148 -206 0
-206 -148 0
-152 -150 0
-149 -153 0
-155 -209 0
-209 -155 0
-210 -156 0
-156 -210 0
-157 -211 0
-211 -157 0
