projected/problems_b25_r0_d7_m100_s666/b25_d7_r0_s666_083.smt2
(set-logic QF_UF)
(declare-fun A0 () Bool)
(declare-fun A1 () Bool)
(declare-fun A2 () Bool)
(declare-fun A3 () Bool)
(declare-fun A4 () Bool)
(declare-fun A5 () Bool)
(declare-fun A6 () Bool)
(declare-fun A7 () Bool)
(declare-fun A8 () Bool)
(declare-fun A9 () Bool)
(declare-fun A10 () Bool)
(declare-fun A11 () Bool)
(declare-fun A12 () Bool)
(declare-fun A13 () Bool)
(declare-fun A14 () Bool)
(declare-fun A15 () Bool)
(declare-fun A16 () Bool)
(declare-fun A17 () Bool)
(declare-fun A18 () Bool)
(declare-fun A19 () Bool)
(declare-fun A20 () Bool)
(declare-fun A21 () Bool)
(declare-fun A22 () Bool)
(declare-fun A23 () Bool)
(declare-fun A24 () Bool)
(assert (let ((.def_0 (not A24))) (let ((.def_1 (or .def_0 A9))) (let ((.def_2 (not .def_1))) (let ((.def_3 (not A0))) (let ((.def_4 (= A2 .def_3))) (let ((.def_5 (not .def_4))) (let ((.def_6 (or .def_5 .def_2))) (let ((.def_7 (not .def_6))) (let ((.def_8 (not A4))) (let ((.def_9 (not A5))) (let ((.def_10 (= .def_9 .def_8))) (let ((.def_11 (not .def_10))) (let ((.def_12 (not A13))) (let ((.def_13 (not A3))) (let ((.def_14 (and .def_13 .def_12))) (let ((.def_15 (not .def_14))) (let ((.def_16 (= .def_15 .def_11))) (let ((.def_17 (= .def_16 .def_7))) (let ((.def_18 (and .def_3 A23))) (let ((.def_19 (not A15))) (let ((.def_20 (and .def_9 .def_19))) (let ((.def_21 (or .def_20 .def_18))) (let ((.def_22 (not A7))) (let ((.def_23 (not A22))) (let ((.def_24 (or .def_23 .def_22))) (let ((.def_25 (not A9))) (let ((.def_26 (not A11))) (let ((.def_27 (or .def_26 .def_25))) (let ((.def_28 (not .def_27))) (let ((.def_29 (or .def_28 .def_24))) (let ((.def_30 (not .def_29))) (let ((.def_31 (or .def_30 .def_21))) (let ((.def_32 (or .def_31 .def_17))) (let ((.def_33 (not A23))) (let ((.def_34 (and .def_33 A23))) (let ((.def_35 (and A24 .def_8))) (let ((.def_36 (not .def_35))) (let ((.def_37 (and .def_36 .def_34))) (let ((.def_38 (not .def_37))) (let ((.def_39 (not A6))) (let ((.def_40 (= .def_39 A13))) (let ((.def_41 (not .def_40))) (let ((.def_42 (or A19 A20))) (let ((.def_43 (not .def_42))) (let ((.def_44 (or .def_43 .def_41))) (let ((.def_45 (or .def_44 .def_38))) (let ((.def_46 (not .def_45))) (let ((.def_47 (and .def_23 A5))) (let ((.def_48 (and A16 .def_0))) (let ((.def_49 (and .def_48 .def_47))) (let ((.def_50 (not .def_49))) (let ((.def_51 (or .def_3 A1))) (let ((.def_52 (not .def_51))) (let ((.def_53 (or A15 A18))) (let ((.def_54 (not .def_53))) (let ((.def_55 (and .def_54 .def_52))) (let ((.def_56 (= .def_55 .def_50))) (let ((.def_57 (and .def_56 .def_46))) (let ((.def_58 (not .def_57))) (let ((.def_59 (or .def_58 .def_32))) (let ((.def_60 (not .def_59))) (let ((.def_61 (and A20 A21))) (let ((.def_62 (not A2))) (let ((.def_63 (and .def_62 A24))) (let ((.def_64 (not .def_63))) (let ((.def_65 (or .def_64 .def_61))) (let ((.def_66 (not A20))) (let ((.def_67 (and .def_9 .def_66))) (let ((.def_68 (and .def_12 .def_9))) (let ((.def_69 (not .def_68))) (let ((.def_70 (and .def_69 .def_67))) (let ((.def_71 (not .def_70))) (let ((.def_72 (= .def_71 .def_65))) (let ((.def_73 (not .def_61))) (let ((.def_74 (not A17))) (let ((.def_75 (or .def_0 .def_74))) (let ((.def_76 (not .def_75))) (let ((.def_77 (and .def_76 .def_73))) (let ((.def_78 (not A19))) (let ((.def_79 (and A13 .def_78))) (let ((.def_80 (not .def_79))) (let ((.def_81 (or A3 A8))) (let ((.def_82 (and .def_81 .def_80))) (let ((.def_83 (= .def_82 .def_77))) (let ((.def_84 (or .def_83 .def_72))) (let ((.def_85 (or A8 .def_39))) (let ((.def_86 (and A20 A13))) (let ((.def_87 (not .def_86))) (let ((.def_88 (= .def_87 .def_85))) (let ((.def_89 (not .def_88))) (let ((.def_90 (or .def_66 A16))) (let ((.def_91 (not A14))) (let ((.def_92 (and .def_91 A16))) (let ((.def_93 (and .def_92 .def_90))) (let ((.def_94 (not .def_93))) (let ((.def_95 (and .def_94 .def_89))) (let ((.def_96 (not A21))) (let ((.def_97 (or .def_33 .def_96))) (let ((.def_98 (not .def_97))) (let ((.def_99 (and A14 A23))) (let ((.def_100 (not .def_99))) (let ((.def_101 (or .def_100 .def_98))) (let ((.def_102 (not .def_101))) (let ((.def_103 (or A2 A19))) (let ((.def_104 (and A9 A12))) (let ((.def_105 (not .def_104))) (let ((.def_106 (and .def_105 .def_103))) (let ((.def_107 (not .def_106))) (let ((.def_108 (or .def_107 .def_102))) (let ((.def_109 (not .def_108))) (let ((.def_110 (or .def_109 .def_95))) (let ((.def_111 (not .def_110))) (let ((.def_112 (or .def_111 .def_84))) (let ((.def_113 (not .def_112))) (let ((.def_114 (or .def_113 .def_60))) (let ((.def_115 (not .def_114))) (let ((.def_116 (not A16))) (let ((.def_117 (or .def_116 A9))) (let ((.def_118 (and .def_66 A9))) (let ((.def_119 (or .def_118 .def_117))) (let ((.def_120 (or A20 A8))) (let ((.def_121 (not .def_120))) (let ((.def_122 (and A24 .def_78))) (let ((.def_123 (not .def_122))) (let ((.def_124 (or .def_123 .def_121))) (let ((.def_125 (not .def_124))) (let ((.def_126 (and .def_125 .def_119))) (let ((.def_127 (and A3 A16))) (let ((.def_128 (not .def_127))) (let ((.def_129 (not A1))) (let ((.def_130 (or .def_129 .def_0))) (let ((.def_131 (or .def_130 .def_128))) (let ((.def_132 (not .def_131))) (let ((.def_133 (or .def_8 A21))) (let ((.def_134 (not .def_133))) (let ((.def_135 (not A10))) (let ((.def_136 (or .def_135 A17))) (let ((.def_137 (not .def_136))) (let ((.def_138 (or .def_137 .def_134))) (let ((.def_139 (not .def_138))) (let ((.def_140 (and .def_139 .def_132))) (let ((.def_141 (or .def_140 .def_126))) (let ((.def_142 (not .def_141))) (let ((.def_143 (not A12))) (let ((.def_144 (and A24 .def_143))) (let ((.def_145 (not .def_144))) (let ((.def_146 (or .def_74 .def_135))) (let ((.def_147 (or .def_146 .def_145))) (let ((.def_148 (not .def_147))) (let ((.def_149 (or .def_8 .def_26))) (let ((.def_150 (not .def_149))) (let ((.def_151 (and A9 .def_25))) (let ((.def_152 (not .def_151))) (let ((.def_153 (or .def_152 .def_150))) (let ((.def_154 (or .def_153 .def_148))) (let ((.def_155 (and A11 .def_91))) (let ((.def_156 (not .def_155))) (let ((.def_157 (not A8))) (let ((.def_158 (or .def_157 A24))) (let ((.def_159 (and .def_158 .def_156))) (let ((.def_160 (and .def_3 .def_25))) (let ((.def_161 (not .def_160))) (let ((.def_162 (and .def_96 .def_74))) (let ((.def_163 (and .def_162 .def_161))) (let ((.def_164 (or .def_163 .def_159))) (let ((.def_165 (not .def_164))) (let ((.def_166 (or .def_165 .def_154))) (let ((.def_167 (not .def_166))) (let ((.def_168 (or .def_167 .def_142))) (let ((.def_169 (and A6 A0))) (let ((.def_170 (not .def_169))) (let ((.def_171 (and .def_135 A20))) (let ((.def_172 (not .def_171))) (let ((.def_173 (or .def_172 .def_170))) (let ((.def_174 (not .def_173))) (let ((.def_175 (or .def_62 A7))) (let ((.def_176 (or .def_62 .def_78))) (let ((.def_177 (not .def_176))) (let ((.def_178 (= .def_177 .def_175))) (let ((.def_179 (not .def_178))) (let ((.def_180 (= .def_179 .def_174))) (let ((.def_181 (or A20 A18))) (let ((.def_182 (not A18))) (let ((.def_183 (and .def_182 A9))) (let ((.def_184 (or .def_183 .def_181))) (let ((.def_185 (not .def_184))) (let ((.def_186 (and A5 .def_33))) (let ((.def_187 (not .def_186))) (let ((.def_188 (or .def_8 A0))) (let ((.def_189 (not .def_188))) (let ((.def_190 (and .def_189 .def_187))) (let ((.def_191 (not .def_190))) (let ((.def_192 (and .def_191 .def_185))) (let ((.def_193 (or .def_192 .def_180))) (let ((.def_194 (and A16 .def_22))) (let ((.def_195 (and A21 A15))) (let ((.def_196 (and .def_195 .def_194))) (let ((.def_197 (not .def_196))) (let ((.def_198 (and .def_33 A13))) (let ((.def_199 (not .def_198))) (let ((.def_200 (or A14 A24))) (let ((.def_201 (not .def_200))) (let ((.def_202 (and .def_201 .def_199))) (let ((.def_203 (and .def_202 .def_197))) (let ((.def_204 (and A11 .def_25))) (let ((.def_205 (not .def_204))) (let ((.def_206 (and A12 A22))) (let ((.def_207 (or .def_206 .def_205))) (let ((.def_208 (not .def_207))) (let ((.def_209 (or .def_182 A15))) (let ((.def_210 (and A12 A18))) (let ((.def_211 (= .def_210 .def_209))) (let ((.def_212 (not .def_211))) (let ((.def_213 (and .def_212 .def_208))) (let ((.def_214 (not .def_213))) (let ((.def_215 (or .def_214 .def_203))) (let ((.def_216 (not .def_215))) (let ((.def_217 (= .def_216 .def_193))) (let ((.def_218 (not .def_217))) (let ((.def_219 (and .def_218 .def_168))) (let ((.def_220 (not .def_219))) (let ((.def_221 (and .def_220 .def_115))) (let ((.def_222 (not .def_221))) .def_222))))))))))))))))))))))))))))))))))))))))))))))))))))))))))))))))))))))))))))))))))))))))))))))))))))))))))))))))))))))))))))))))))))))))))))))))))))))))))))))))))))))))))))))))))))))))))))))))))))))))))))))))))))))))))))))))
(check-sat)
